; benchmark generated from python API
(set-info :status unknown)
(declare-fun ocupaf_0_0_1_0 () Bool)
(declare-fun ocupaf_0_0_0_1 () Bool)
(declare-fun ocupaf_0_1_1_0 () Bool)
(declare-fun ocupaf_0_1_0_1 () Bool)
(declare-fun ocupav_1_0_1_0 () Bool)
(declare-fun ocupav_1_0_0_1 () Bool)
(declare-fun ocupaf_1_0_0_0 () Bool)
(declare-fun ocupav_1_0_1_1 () Bool)
(declare-fun ocupaf_1_0_0_1 () Bool)
(declare-fun ocupaf_1_0_1_0 () Bool)
(declare-fun ocupav_1_1_1_0 () Bool)
(declare-fun ocupav_1_1_0_1 () Bool)
(declare-fun ocupaf_1_1_0_0 () Bool)
(declare-fun ocupav_1_1_1_1 () Bool)
(declare-fun ocupaf_1_1_0_1 () Bool)
(declare-fun ocupaf_1_1_1_0 () Bool)
(declare-fun ocupav_2_0_1_0 () Bool)
(declare-fun ocupav_2_0_0_1 () Bool)
(declare-fun ocupaf_2_0_0_0 () Bool)
(declare-fun ocupav_2_0_1_1 () Bool)
(declare-fun ocupaf_2_0_0_1 () Bool)
(declare-fun ocupaf_2_0_1_0 () Bool)
(declare-fun ocupav_2_1_1_0 () Bool)
(declare-fun ocupav_2_1_0_1 () Bool)
(declare-fun ocupaf_2_1_0_0 () Bool)
(declare-fun ocupav_2_1_1_1 () Bool)
(declare-fun ocupaf_2_1_0_1 () Bool)
(declare-fun ocupaf_2_1_1_0 () Bool)
(declare-fun ocupaf_0_0_0_0 () Bool)
(declare-fun ocupaf_0_0_1_1 () Bool)
(declare-fun ocupaf_0_1_1_1 () Bool)
(declare-fun ocupaf_0_1_0_0 () Bool)
(declare-fun x_0_1 () Bool)
(declare-fun x_0_0 () Bool)
(declare-fun ocupav_1_0_0_0 () Bool)
(declare-fun ocupaf_1_0_1_1 () Bool)
(declare-fun ocupaf_1_1_1_1 () Bool)
(declare-fun ocupav_1_1_0_0 () Bool)
(declare-fun x_1_1 () Bool)
(declare-fun x_1_0 () Bool)
(declare-fun ocupav_2_0_0_0 () Bool)
(declare-fun ocupaf_2_0_1_1 () Bool)
(declare-fun ocupaf_2_1_1_1 () Bool)
(declare-fun ocupav_2_1_0_0 () Bool)
(declare-fun x_2_1 () Bool)
(declare-fun x_2_0 () Bool)
(declare-fun var_0_0_0 () Int)
(declare-fun var_0_1_0 () Int)
(declare-fun var_1_0_0 () Int)
(declare-fun var_1_1_0 () Int)
(declare-fun var_2_0_0 () Int)
(declare-fun var_2_1_0 () Int)
(declare-fun ocupamv_0_1_0 () Bool)
(declare-fun ocupamv_0_0_1 () Bool)
(declare-fun ocupamf_0_0 () Bool)
(declare-fun ocupamv_0_1_1 () Bool)
(declare-fun ocupamf_0_1 () Bool)
(declare-fun ocupamv_1_1_0 () Bool)
(declare-fun ocupamv_1_0_1 () Bool)
(declare-fun ocupamf_1_0 () Bool)
(declare-fun ocupamv_1_1_1 () Bool)
(declare-fun ocupamf_1_1 () Bool)
(declare-fun ocupamv_0_0_0 () Bool)
(declare-fun ocupamv_1_0_0 () Bool)
(declare-fun cuenta_0_0 () Bool)
(declare-fun cuenta_0_1 () Bool)
(declare-fun cuenta_1_0 () Bool)
(declare-fun cuenta_1_1 () Bool)
(declare-fun cuenta_2_0 () Bool)
(declare-fun cuenta_2_1 () Bool)
(assert
 (let (($x51 (not ocupaf_0_0_1_0)))
 (=> ocupaf_0_0_0_1 $x51)))
(assert
 (let (($x72 (not ocupaf_0_1_1_0)))
 (=> ocupaf_0_1_0_1 $x72)))
(assert
 (let (($x76 (not ocupav_1_0_1_0)))
 (=> ocupav_1_0_0_1 $x76)))
(assert
 (let (($x76 (not ocupav_1_0_1_0)))
 (=> ocupaf_1_0_0_0 $x76)))
(assert
 (let (($x83 (not ocupav_1_0_1_1)))
 (=> ocupaf_1_0_0_0 $x83)))
(assert
 (let (($x76 (not ocupav_1_0_1_0)))
 (=> ocupaf_1_0_0_1 $x76)))
(assert
 (let (($x83 (not ocupav_1_0_1_1)))
 (=> ocupaf_1_0_0_1 $x83)))
(assert
 (let (($x91 (not ocupaf_1_0_1_0)))
 (=> ocupaf_1_0_0_1 $x91)))
(assert
 (let (($x94 (not ocupav_1_1_1_0)))
 (=> ocupav_1_1_0_1 $x94)))
(assert
 (let (($x94 (not ocupav_1_1_1_0)))
 (=> ocupaf_1_1_0_0 $x94)))
(assert
 (let (($x101 (not ocupav_1_1_1_1)))
 (=> ocupaf_1_1_0_0 $x101)))
(assert
 (let (($x94 (not ocupav_1_1_1_0)))
 (=> ocupaf_1_1_0_1 $x94)))
(assert
 (let (($x101 (not ocupav_1_1_1_1)))
 (=> ocupaf_1_1_0_1 $x101)))
(assert
 (let (($x109 (not ocupaf_1_1_1_0)))
 (=> ocupaf_1_1_0_1 $x109)))
(assert
 (let (($x112 (not ocupav_2_0_1_0)))
 (=> ocupav_2_0_0_1 $x112)))
(assert
 (let (($x112 (not ocupav_2_0_1_0)))
 (=> ocupaf_2_0_0_0 $x112)))
(assert
 (let (($x119 (not ocupav_2_0_1_1)))
 (=> ocupaf_2_0_0_0 $x119)))
(assert
 (let (($x112 (not ocupav_2_0_1_0)))
 (=> ocupaf_2_0_0_1 $x112)))
(assert
 (let (($x119 (not ocupav_2_0_1_1)))
 (=> ocupaf_2_0_0_1 $x119)))
(assert
 (let (($x127 (not ocupaf_2_0_1_0)))
 (=> ocupaf_2_0_0_1 $x127)))
(assert
 (let (($x130 (not ocupav_2_1_1_0)))
 (=> ocupav_2_1_0_1 $x130)))
(assert
 (let (($x130 (not ocupav_2_1_1_0)))
 (=> ocupaf_2_1_0_0 $x130)))
(assert
 (let (($x137 (not ocupav_2_1_1_1)))
 (=> ocupaf_2_1_0_0 $x137)))
(assert
 (let (($x130 (not ocupav_2_1_1_0)))
 (=> ocupaf_2_1_0_1 $x130)))
(assert
 (let (($x137 (not ocupav_2_1_1_1)))
 (=> ocupaf_2_1_0_1 $x137)))
(assert
 (let (($x145 (not ocupaf_2_1_1_0)))
 (=> ocupaf_2_1_0_1 $x145)))
(assert
 (let ((?x153 (ite ocupaf_0_0_0_1 1 0)))
 (let ((?x152 (ite ocupaf_0_0_0_0 1 0)))
 (let ((?x154 (+ ?x152 ?x153)))
 (<= ?x154 1)))))
(assert
 (let ((?x157 (ite ocupaf_0_0_1_1 1 0)))
 (let ((?x156 (ite ocupaf_0_0_1_0 1 0)))
 (let ((?x159 (+ ?x156 ?x157)))
 (let (($x160 (= ?x159 0)))
 (let ((?x153 (ite ocupaf_0_0_0_1 1 0)))
 (let ((?x152 (ite ocupaf_0_0_0_0 1 0)))
 (let ((?x154 (+ ?x152 ?x153)))
 (let (($x158 (= ?x154 0)))
 (=> $x158 $x160))))))))))
(assert
 (let ((?x157 (ite ocupaf_0_0_1_1 1 0)))
 (let ((?x156 (ite ocupaf_0_0_1_0 1 0)))
 (let ((?x159 (+ ?x156 ?x157)))
 (<= ?x159 1)))))
(assert
 (let ((?x157 (ite ocupaf_0_0_1_1 1 0)))
 (let ((?x156 (ite ocupaf_0_0_1_0 1 0)))
 (let ((?x159 (+ ?x156 ?x157)))
 (let (($x160 (= ?x159 0)))
 (let ((?x153 (ite ocupaf_0_0_0_1 1 0)))
 (let ((?x152 (ite ocupaf_0_0_0_0 1 0)))
 (let ((?x154 (+ ?x152 ?x153)))
 (let (($x158 (= ?x154 0)))
 (=> $x158 $x160))))))))))
(assert
 (let ((?x157 (ite ocupaf_0_0_1_1 1 0)))
 (let ((?x164 (ite ocupaf_0_0_1_0 2 0)))
 (let ((?x167 (+ (+ (ite ocupaf_0_0_0_0 2 0) (ite ocupaf_0_0_0_1 1 0)) ?x164)))
 (let ((?x168 (+ ?x167 ?x157)))
 (<= ?x168 2))))))
(assert
 (let ((?x157 (ite ocupaf_0_0_1_1 1 0)))
 (let ((?x156 (ite ocupaf_0_0_1_0 1 0)))
 (let ((?x159 (+ ?x156 ?x157)))
 (let ((?x153 (ite ocupaf_0_0_0_1 1 0)))
 (let ((?x152 (ite ocupaf_0_0_0_0 1 0)))
 (let ((?x154 (+ ?x152 ?x153)))
 (> (+ ?x154 ?x159) 1))))))))
(assert
 (let ((?x185 (ite ocupaf_0_1_1_1 1 0)))
 (let ((?x184 (ite ocupaf_0_1_0_1 1 0)))
 (let ((?x186 (+ ?x184 ?x185)))
 (let ((?x157 (ite ocupaf_0_0_1_1 1 0)))
 (let ((?x153 (ite ocupaf_0_0_0_1 1 0)))
 (let ((?x183 (+ ?x153 ?x157)))
 (let ((?x188 (ite (and (distinct ?x183 ?x186) true) 1 0)))
 (let ((?x179 (ite ocupaf_0_1_1_0 1 0)))
 (let ((?x178 (ite ocupaf_0_1_0_0 1 0)))
 (let ((?x180 (+ ?x178 ?x179)))
 (let ((?x156 (ite ocupaf_0_0_1_0 1 0)))
 (let ((?x152 (ite ocupaf_0_0_0_0 1 0)))
 (let ((?x177 (+ ?x152 ?x156)))
 (let ((?x182 (ite (and (distinct ?x177 ?x180) true) 1 0)))
 (let (($x189 (and x_0_0 x_0_1)))
 (=> $x189 (> (+ ?x182 ?x188) 0))))))))))))))))))
(assert
 (let ((?x184 (ite ocupaf_0_1_0_1 1 0)))
 (let ((?x178 (ite ocupaf_0_1_0_0 1 0)))
 (let ((?x216 (+ ?x178 ?x184)))
 (<= ?x216 1)))))
(assert
 (let ((?x185 (ite ocupaf_0_1_1_1 1 0)))
 (let ((?x179 (ite ocupaf_0_1_1_0 1 0)))
 (let ((?x219 (+ ?x179 ?x185)))
 (let (($x220 (= ?x219 0)))
 (let ((?x184 (ite ocupaf_0_1_0_1 1 0)))
 (let ((?x178 (ite ocupaf_0_1_0_0 1 0)))
 (let ((?x216 (+ ?x178 ?x184)))
 (let (($x218 (= ?x216 0)))
 (=> $x218 $x220))))))))))
(assert
 (let ((?x185 (ite ocupaf_0_1_1_1 1 0)))
 (let ((?x179 (ite ocupaf_0_1_1_0 1 0)))
 (let ((?x219 (+ ?x179 ?x185)))
 (<= ?x219 1)))))
(assert
 (let ((?x185 (ite ocupaf_0_1_1_1 1 0)))
 (let ((?x179 (ite ocupaf_0_1_1_0 1 0)))
 (let ((?x219 (+ ?x179 ?x185)))
 (let (($x220 (= ?x219 0)))
 (let ((?x184 (ite ocupaf_0_1_0_1 1 0)))
 (let ((?x178 (ite ocupaf_0_1_0_0 1 0)))
 (let ((?x216 (+ ?x178 ?x184)))
 (let (($x218 (= ?x216 0)))
 (=> $x218 $x220))))))))))
(assert
 (let ((?x185 (ite ocupaf_0_1_1_1 1 0)))
 (let ((?x224 (ite ocupaf_0_1_1_0 2 0)))
 (let ((?x227 (+ (+ (ite ocupaf_0_1_0_0 2 0) (ite ocupaf_0_1_0_1 1 0)) ?x224)))
 (let ((?x228 (+ ?x227 ?x185)))
 (<= ?x228 2))))))
(assert
 (let ((?x185 (ite ocupaf_0_1_1_1 1 0)))
 (let ((?x179 (ite ocupaf_0_1_1_0 1 0)))
 (let ((?x219 (+ ?x179 ?x185)))
 (let ((?x184 (ite ocupaf_0_1_0_1 1 0)))
 (let ((?x178 (ite ocupaf_0_1_0_0 1 0)))
 (let ((?x216 (+ ?x178 ?x184)))
 (> (+ ?x216 ?x219) 1))))))))
(assert
 (let ((?x185 (ite ocupaf_0_1_1_1 1 0)))
 (let ((?x184 (ite ocupaf_0_1_0_1 1 0)))
 (let ((?x186 (+ ?x184 ?x185)))
 (let ((?x157 (ite ocupaf_0_0_1_1 1 0)))
 (let ((?x153 (ite ocupaf_0_0_0_1 1 0)))
 (let ((?x183 (+ ?x153 ?x157)))
 (let ((?x188 (ite (and (distinct ?x183 ?x186) true) 1 0)))
 (let ((?x179 (ite ocupaf_0_1_1_0 1 0)))
 (let ((?x178 (ite ocupaf_0_1_0_0 1 0)))
 (let ((?x180 (+ ?x178 ?x179)))
 (let ((?x156 (ite ocupaf_0_0_1_0 1 0)))
 (let ((?x152 (ite ocupaf_0_0_0_0 1 0)))
 (let ((?x177 (+ ?x152 ?x156)))
 (let ((?x182 (ite (and (distinct ?x177 ?x180) true) 1 0)))
 (let (($x189 (and x_0_0 x_0_1)))
 (=> $x189 (> (+ ?x182 ?x188) 0))))))))))))))))))
(assert
 (=> ocupav_1_0_0_0 x_0_0))
(assert
 (=> ocupav_1_0_0_1 x_0_1))
(assert
 (let ((?x246 (ite ocupaf_1_0_0_1 1 0)))
 (let ((?x245 (ite ocupaf_1_0_0_0 1 0)))
 (let ((?x243 (ite ocupav_1_0_0_1 1 0)))
 (let ((?x240 (ite ocupav_1_0_0_0 1 0)))
 (let ((?x247 (+ ?x240 ?x243)))
 (let ((?x249 (+ (+ ?x247 ?x245) ?x246)))
 (<= ?x249 1))))))))
(assert
 (let ((?x256 (ite ocupaf_1_0_1_1 1 0)))
 (let ((?x255 (ite ocupaf_1_0_1_0 1 0)))
 (let ((?x259 (+ (+ (ite ocupav_1_0_1_0 1 0) (ite ocupav_1_0_1_1 1 0)) ?x255)))
 (let ((?x260 (+ ?x259 ?x256)))
 (let ((?x246 (ite ocupaf_1_0_0_1 1 0)))
 (let ((?x245 (ite ocupaf_1_0_0_0 1 0)))
 (let ((?x243 (ite ocupav_1_0_0_1 1 0)))
 (let ((?x240 (ite ocupav_1_0_0_0 1 0)))
 (let ((?x247 (+ ?x240 ?x243)))
 (let ((?x249 (+ (+ ?x247 ?x245) ?x246)))
 (=> (= ?x249 0) (= ?x260 0)))))))))))))
(assert
 (=> ocupav_1_0_1_0 x_0_0))
(assert
 (=> ocupav_1_0_1_1 x_0_1))
(assert
 (let ((?x256 (ite ocupaf_1_0_1_1 1 0)))
 (let ((?x255 (ite ocupaf_1_0_1_0 1 0)))
 (let ((?x259 (+ (+ (ite ocupav_1_0_1_0 1 0) (ite ocupav_1_0_1_1 1 0)) ?x255)))
 (let ((?x260 (+ ?x259 ?x256)))
 (<= ?x260 1))))))
(assert
 (let ((?x256 (ite ocupaf_1_0_1_1 1 0)))
 (let ((?x255 (ite ocupaf_1_0_1_0 1 0)))
 (let ((?x259 (+ (+ (ite ocupav_1_0_1_0 1 0) (ite ocupav_1_0_1_1 1 0)) ?x255)))
 (let ((?x260 (+ ?x259 ?x256)))
 (let ((?x246 (ite ocupaf_1_0_0_1 1 0)))
 (let ((?x245 (ite ocupaf_1_0_0_0 1 0)))
 (let ((?x243 (ite ocupav_1_0_0_1 1 0)))
 (let ((?x240 (ite ocupav_1_0_0_0 1 0)))
 (let ((?x247 (+ ?x240 ?x243)))
 (let ((?x249 (+ (+ ?x247 ?x245) ?x246)))
 (=> (= ?x249 0) (= ?x260 0)))))))))))))
(assert
 (let ((?x256 (ite ocupaf_1_0_1_1 1 0)))
 (let ((?x272 (ite ocupaf_1_0_1_0 2 0)))
 (let ((?x254 (ite ocupav_1_0_1_1 1 0)))
 (let ((?x253 (ite ocupav_1_0_1_0 1 0)))
 (let ((?x246 (ite ocupaf_1_0_0_1 1 0)))
 (let ((?x244 (ite ocupaf_1_0_0_0 2 0)))
 (let ((?x243 (ite ocupav_1_0_0_1 1 0)))
 (let ((?x240 (ite ocupav_1_0_0_0 1 0)))
 (let ((?x247 (+ ?x240 ?x243)))
 (<= (+ (+ (+ (+ (+ (+ ?x247 ?x244) ?x246) ?x253) ?x254) ?x272) ?x256) 2)))))))))))
(assert
 (let ((?x256 (ite ocupaf_1_0_1_1 1 0)))
 (let ((?x255 (ite ocupaf_1_0_1_0 1 0)))
 (let ((?x259 (+ (+ (ite ocupav_1_0_1_0 1 0) (ite ocupav_1_0_1_1 1 0)) ?x255)))
 (let ((?x260 (+ ?x259 ?x256)))
 (let ((?x246 (ite ocupaf_1_0_0_1 1 0)))
 (let ((?x245 (ite ocupaf_1_0_0_0 1 0)))
 (let ((?x243 (ite ocupav_1_0_0_1 1 0)))
 (let ((?x240 (ite ocupav_1_0_0_0 1 0)))
 (let ((?x247 (+ ?x240 ?x243)))
 (let ((?x249 (+ (+ ?x247 ?x245) ?x246)))
 (> (+ ?x249 ?x260) 1))))))))))))
(assert
 (let ((?x309 (ite ocupaf_1_1_1_1 1 0)))
 (let ((?x308 (ite ocupaf_1_1_0_1 1 0)))
 (let ((?x310 (+ ?x308 ?x309)))
 (let ((?x256 (ite ocupaf_1_0_1_1 1 0)))
 (let ((?x246 (ite ocupaf_1_0_0_1 1 0)))
 (let ((?x307 (+ ?x246 ?x256)))
 (let ((?x312 (ite (and (distinct ?x307 ?x310) true) 1 0)))
 (let ((?x303 (ite ocupaf_1_1_1_0 1 0)))
 (let ((?x302 (ite ocupaf_1_1_0_0 1 0)))
 (let ((?x304 (+ ?x302 ?x303)))
 (let ((?x255 (ite ocupaf_1_0_1_0 1 0)))
 (let ((?x245 (ite ocupaf_1_0_0_0 1 0)))
 (let ((?x301 (+ ?x245 ?x255)))
 (let ((?x306 (ite (and (distinct ?x301 ?x304) true) 1 0)))
 (let ((?x297 (ite ocupav_1_1_1_1 1 0)))
 (let ((?x296 (ite ocupav_1_1_0_1 1 0)))
 (let ((?x298 (+ ?x296 ?x297)))
 (let ((?x254 (ite ocupav_1_0_1_1 1 0)))
 (let ((?x243 (ite ocupav_1_0_0_1 1 0)))
 (let ((?x295 (+ ?x243 ?x254)))
 (let ((?x300 (ite (and (distinct ?x295 ?x298) true) 1 0)))
 (let ((?x291 (ite ocupav_1_1_1_0 1 0)))
 (let ((?x290 (ite ocupav_1_1_0_0 1 0)))
 (let ((?x292 (+ ?x290 ?x291)))
 (let ((?x253 (ite ocupav_1_0_1_0 1 0)))
 (let ((?x240 (ite ocupav_1_0_0_0 1 0)))
 (let ((?x289 (+ ?x240 ?x253)))
 (let ((?x294 (ite (and (distinct ?x289 ?x292) true) 1 0)))
 (let (($x313 (and x_1_0 x_1_1)))
 (=> $x313 (> (+ (+ (+ ?x294 ?x300) ?x306) ?x312) 0))))))))))))))))))))))))))))))))
(assert
 (=> ocupav_1_1_0_0 x_0_0))
(assert
 (=> ocupav_1_1_0_1 x_0_1))
(assert
 (let ((?x308 (ite ocupaf_1_1_0_1 1 0)))
 (let ((?x302 (ite ocupaf_1_1_0_0 1 0)))
 (let ((?x296 (ite ocupav_1_1_0_1 1 0)))
 (let ((?x290 (ite ocupav_1_1_0_0 1 0)))
 (let ((?x362 (+ ?x290 ?x296)))
 (let ((?x364 (+ (+ ?x362 ?x302) ?x308)))
 (<= ?x364 1))))))))
(assert
 (let ((?x309 (ite ocupaf_1_1_1_1 1 0)))
 (let ((?x303 (ite ocupaf_1_1_1_0 1 0)))
 (let ((?x370 (+ (+ (ite ocupav_1_1_1_0 1 0) (ite ocupav_1_1_1_1 1 0)) ?x303)))
 (let ((?x371 (+ ?x370 ?x309)))
 (let ((?x308 (ite ocupaf_1_1_0_1 1 0)))
 (let ((?x302 (ite ocupaf_1_1_0_0 1 0)))
 (let ((?x296 (ite ocupav_1_1_0_1 1 0)))
 (let ((?x290 (ite ocupav_1_1_0_0 1 0)))
 (let ((?x362 (+ ?x290 ?x296)))
 (let ((?x364 (+ (+ ?x362 ?x302) ?x308)))
 (=> (= ?x364 0) (= ?x371 0)))))))))))))
(assert
 (=> ocupav_1_1_1_0 x_0_0))
(assert
 (=> ocupav_1_1_1_1 x_0_1))
(assert
 (let ((?x309 (ite ocupaf_1_1_1_1 1 0)))
 (let ((?x303 (ite ocupaf_1_1_1_0 1 0)))
 (let ((?x370 (+ (+ (ite ocupav_1_1_1_0 1 0) (ite ocupav_1_1_1_1 1 0)) ?x303)))
 (let ((?x371 (+ ?x370 ?x309)))
 (<= ?x371 1))))))
(assert
 (let ((?x309 (ite ocupaf_1_1_1_1 1 0)))
 (let ((?x303 (ite ocupaf_1_1_1_0 1 0)))
 (let ((?x370 (+ (+ (ite ocupav_1_1_1_0 1 0) (ite ocupav_1_1_1_1 1 0)) ?x303)))
 (let ((?x371 (+ ?x370 ?x309)))
 (let ((?x308 (ite ocupaf_1_1_0_1 1 0)))
 (let ((?x302 (ite ocupaf_1_1_0_0 1 0)))
 (let ((?x296 (ite ocupav_1_1_0_1 1 0)))
 (let ((?x290 (ite ocupav_1_1_0_0 1 0)))
 (let ((?x362 (+ ?x290 ?x296)))
 (let ((?x364 (+ (+ ?x362 ?x302) ?x308)))
 (=> (= ?x364 0) (= ?x371 0)))))))))))))
(assert
 (let ((?x309 (ite ocupaf_1_1_1_1 1 0)))
 (let ((?x383 (ite ocupaf_1_1_1_0 2 0)))
 (let ((?x297 (ite ocupav_1_1_1_1 1 0)))
 (let ((?x291 (ite ocupav_1_1_1_0 1 0)))
 (let ((?x308 (ite ocupaf_1_1_0_1 1 0)))
 (let ((?x361 (ite ocupaf_1_1_0_0 2 0)))
 (let ((?x296 (ite ocupav_1_1_0_1 1 0)))
 (let ((?x290 (ite ocupav_1_1_0_0 1 0)))
 (let ((?x362 (+ ?x290 ?x296)))
 (<= (+ (+ (+ (+ (+ (+ ?x362 ?x361) ?x308) ?x291) ?x297) ?x383) ?x309) 2)))))))))))
(assert
 (let ((?x309 (ite ocupaf_1_1_1_1 1 0)))
 (let ((?x303 (ite ocupaf_1_1_1_0 1 0)))
 (let ((?x370 (+ (+ (ite ocupav_1_1_1_0 1 0) (ite ocupav_1_1_1_1 1 0)) ?x303)))
 (let ((?x371 (+ ?x370 ?x309)))
 (let ((?x308 (ite ocupaf_1_1_0_1 1 0)))
 (let ((?x302 (ite ocupaf_1_1_0_0 1 0)))
 (let ((?x296 (ite ocupav_1_1_0_1 1 0)))
 (let ((?x290 (ite ocupav_1_1_0_0 1 0)))
 (let ((?x362 (+ ?x290 ?x296)))
 (let ((?x364 (+ (+ ?x362 ?x302) ?x308)))
 (> (+ ?x364 ?x371) 1))))))))))))
(assert
 (let ((?x309 (ite ocupaf_1_1_1_1 1 0)))
 (let ((?x308 (ite ocupaf_1_1_0_1 1 0)))
 (let ((?x310 (+ ?x308 ?x309)))
 (let ((?x256 (ite ocupaf_1_0_1_1 1 0)))
 (let ((?x246 (ite ocupaf_1_0_0_1 1 0)))
 (let ((?x307 (+ ?x246 ?x256)))
 (let ((?x312 (ite (and (distinct ?x307 ?x310) true) 1 0)))
 (let ((?x303 (ite ocupaf_1_1_1_0 1 0)))
 (let ((?x302 (ite ocupaf_1_1_0_0 1 0)))
 (let ((?x304 (+ ?x302 ?x303)))
 (let ((?x255 (ite ocupaf_1_0_1_0 1 0)))
 (let ((?x245 (ite ocupaf_1_0_0_0 1 0)))
 (let ((?x301 (+ ?x245 ?x255)))
 (let ((?x306 (ite (and (distinct ?x301 ?x304) true) 1 0)))
 (let ((?x297 (ite ocupav_1_1_1_1 1 0)))
 (let ((?x296 (ite ocupav_1_1_0_1 1 0)))
 (let ((?x298 (+ ?x296 ?x297)))
 (let ((?x254 (ite ocupav_1_0_1_1 1 0)))
 (let ((?x243 (ite ocupav_1_0_0_1 1 0)))
 (let ((?x295 (+ ?x243 ?x254)))
 (let ((?x300 (ite (and (distinct ?x295 ?x298) true) 1 0)))
 (let ((?x291 (ite ocupav_1_1_1_0 1 0)))
 (let ((?x290 (ite ocupav_1_1_0_0 1 0)))
 (let ((?x292 (+ ?x290 ?x291)))
 (let ((?x253 (ite ocupav_1_0_1_0 1 0)))
 (let ((?x240 (ite ocupav_1_0_0_0 1 0)))
 (let ((?x289 (+ ?x240 ?x253)))
 (let ((?x294 (ite (and (distinct ?x289 ?x292) true) 1 0)))
 (let (($x313 (and x_1_0 x_1_1)))
 (=> $x313 (> (+ (+ (+ ?x294 ?x300) ?x306) ?x312) 0))))))))))))))))))))))))))))))))
(assert
 (=> ocupav_2_0_0_0 x_1_0))
(assert
 (=> ocupav_2_0_0_1 x_1_1))
(assert
 (let ((?x409 (ite ocupaf_2_0_0_1 1 0)))
 (let ((?x408 (ite ocupaf_2_0_0_0 1 0)))
 (let ((?x406 (ite ocupav_2_0_0_1 1 0)))
 (let ((?x403 (ite ocupav_2_0_0_0 1 0)))
 (let ((?x410 (+ ?x403 ?x406)))
 (let ((?x412 (+ (+ ?x410 ?x408) ?x409)))
 (<= ?x412 1))))))))
(assert
 (let ((?x419 (ite ocupaf_2_0_1_1 1 0)))
 (let ((?x418 (ite ocupaf_2_0_1_0 1 0)))
 (let ((?x422 (+ (+ (ite ocupav_2_0_1_0 1 0) (ite ocupav_2_0_1_1 1 0)) ?x418)))
 (let ((?x423 (+ ?x422 ?x419)))
 (let ((?x409 (ite ocupaf_2_0_0_1 1 0)))
 (let ((?x408 (ite ocupaf_2_0_0_0 1 0)))
 (let ((?x406 (ite ocupav_2_0_0_1 1 0)))
 (let ((?x403 (ite ocupav_2_0_0_0 1 0)))
 (let ((?x410 (+ ?x403 ?x406)))
 (let ((?x412 (+ (+ ?x410 ?x408) ?x409)))
 (=> (= ?x412 0) (= ?x423 0)))))))))))))
(assert
 (=> ocupav_2_0_1_0 x_1_0))
(assert
 (=> ocupav_2_0_1_1 x_1_1))
(assert
 (let ((?x419 (ite ocupaf_2_0_1_1 1 0)))
 (let ((?x418 (ite ocupaf_2_0_1_0 1 0)))
 (let ((?x422 (+ (+ (ite ocupav_2_0_1_0 1 0) (ite ocupav_2_0_1_1 1 0)) ?x418)))
 (let ((?x423 (+ ?x422 ?x419)))
 (<= ?x423 1))))))
(assert
 (let ((?x419 (ite ocupaf_2_0_1_1 1 0)))
 (let ((?x418 (ite ocupaf_2_0_1_0 1 0)))
 (let ((?x422 (+ (+ (ite ocupav_2_0_1_0 1 0) (ite ocupav_2_0_1_1 1 0)) ?x418)))
 (let ((?x423 (+ ?x422 ?x419)))
 (let ((?x409 (ite ocupaf_2_0_0_1 1 0)))
 (let ((?x408 (ite ocupaf_2_0_0_0 1 0)))
 (let ((?x406 (ite ocupav_2_0_0_1 1 0)))
 (let ((?x403 (ite ocupav_2_0_0_0 1 0)))
 (let ((?x410 (+ ?x403 ?x406)))
 (let ((?x412 (+ (+ ?x410 ?x408) ?x409)))
 (=> (= ?x412 0) (= ?x423 0)))))))))))))
(assert
 (let ((?x419 (ite ocupaf_2_0_1_1 1 0)))
 (let ((?x435 (ite ocupaf_2_0_1_0 2 0)))
 (let ((?x417 (ite ocupav_2_0_1_1 1 0)))
 (let ((?x416 (ite ocupav_2_0_1_0 1 0)))
 (let ((?x409 (ite ocupaf_2_0_0_1 1 0)))
 (let ((?x407 (ite ocupaf_2_0_0_0 2 0)))
 (let ((?x406 (ite ocupav_2_0_0_1 1 0)))
 (let ((?x403 (ite ocupav_2_0_0_0 1 0)))
 (let ((?x410 (+ ?x403 ?x406)))
 (<= (+ (+ (+ (+ (+ (+ ?x410 ?x407) ?x409) ?x416) ?x417) ?x435) ?x419) 2)))))))))))
(assert
 (let ((?x419 (ite ocupaf_2_0_1_1 1 0)))
 (let ((?x418 (ite ocupaf_2_0_1_0 1 0)))
 (let ((?x422 (+ (+ (ite ocupav_2_0_1_0 1 0) (ite ocupav_2_0_1_1 1 0)) ?x418)))
 (let ((?x423 (+ ?x422 ?x419)))
 (let ((?x409 (ite ocupaf_2_0_0_1 1 0)))
 (let ((?x408 (ite ocupaf_2_0_0_0 1 0)))
 (let ((?x406 (ite ocupav_2_0_0_1 1 0)))
 (let ((?x403 (ite ocupav_2_0_0_0 1 0)))
 (let ((?x410 (+ ?x403 ?x406)))
 (let ((?x412 (+ (+ ?x410 ?x408) ?x409)))
 (> (+ ?x412 ?x423) 1))))))))))))
(assert
 (let ((?x472 (ite ocupaf_2_1_1_1 1 0)))
 (let ((?x471 (ite ocupaf_2_1_0_1 1 0)))
 (let ((?x473 (+ ?x471 ?x472)))
 (let ((?x419 (ite ocupaf_2_0_1_1 1 0)))
 (let ((?x409 (ite ocupaf_2_0_0_1 1 0)))
 (let ((?x470 (+ ?x409 ?x419)))
 (let ((?x475 (ite (and (distinct ?x470 ?x473) true) 1 0)))
 (let ((?x466 (ite ocupaf_2_1_1_0 1 0)))
 (let ((?x465 (ite ocupaf_2_1_0_0 1 0)))
 (let ((?x467 (+ ?x465 ?x466)))
 (let ((?x418 (ite ocupaf_2_0_1_0 1 0)))
 (let ((?x408 (ite ocupaf_2_0_0_0 1 0)))
 (let ((?x464 (+ ?x408 ?x418)))
 (let ((?x469 (ite (and (distinct ?x464 ?x467) true) 1 0)))
 (let ((?x460 (ite ocupav_2_1_1_1 1 0)))
 (let ((?x459 (ite ocupav_2_1_0_1 1 0)))
 (let ((?x461 (+ ?x459 ?x460)))
 (let ((?x417 (ite ocupav_2_0_1_1 1 0)))
 (let ((?x406 (ite ocupav_2_0_0_1 1 0)))
 (let ((?x458 (+ ?x406 ?x417)))
 (let ((?x463 (ite (and (distinct ?x458 ?x461) true) 1 0)))
 (let ((?x454 (ite ocupav_2_1_1_0 1 0)))
 (let ((?x453 (ite ocupav_2_1_0_0 1 0)))
 (let ((?x455 (+ ?x453 ?x454)))
 (let ((?x416 (ite ocupav_2_0_1_0 1 0)))
 (let ((?x403 (ite ocupav_2_0_0_0 1 0)))
 (let ((?x452 (+ ?x403 ?x416)))
 (let ((?x457 (ite (and (distinct ?x452 ?x455) true) 1 0)))
 (let (($x476 (and x_2_0 x_2_1)))
 (=> $x476 (> (+ (+ (+ ?x457 ?x463) ?x469) ?x475) 0))))))))))))))))))))))))))))))))
(assert
 (=> ocupav_2_1_0_0 x_1_0))
(assert
 (=> ocupav_2_1_0_1 x_1_1))
(assert
 (let ((?x471 (ite ocupaf_2_1_0_1 1 0)))
 (let ((?x465 (ite ocupaf_2_1_0_0 1 0)))
 (let ((?x459 (ite ocupav_2_1_0_1 1 0)))
 (let ((?x453 (ite ocupav_2_1_0_0 1 0)))
 (let ((?x525 (+ ?x453 ?x459)))
 (let ((?x527 (+ (+ ?x525 ?x465) ?x471)))
 (<= ?x527 1))))))))
(assert
 (let ((?x472 (ite ocupaf_2_1_1_1 1 0)))
 (let ((?x466 (ite ocupaf_2_1_1_0 1 0)))
 (let ((?x533 (+ (+ (ite ocupav_2_1_1_0 1 0) (ite ocupav_2_1_1_1 1 0)) ?x466)))
 (let ((?x534 (+ ?x533 ?x472)))
 (let ((?x471 (ite ocupaf_2_1_0_1 1 0)))
 (let ((?x465 (ite ocupaf_2_1_0_0 1 0)))
 (let ((?x459 (ite ocupav_2_1_0_1 1 0)))
 (let ((?x453 (ite ocupav_2_1_0_0 1 0)))
 (let ((?x525 (+ ?x453 ?x459)))
 (let ((?x527 (+ (+ ?x525 ?x465) ?x471)))
 (=> (= ?x527 0) (= ?x534 0)))))))))))))
(assert
 (=> ocupav_2_1_1_0 x_1_0))
(assert
 (=> ocupav_2_1_1_1 x_1_1))
(assert
 (let ((?x472 (ite ocupaf_2_1_1_1 1 0)))
 (let ((?x466 (ite ocupaf_2_1_1_0 1 0)))
 (let ((?x533 (+ (+ (ite ocupav_2_1_1_0 1 0) (ite ocupav_2_1_1_1 1 0)) ?x466)))
 (let ((?x534 (+ ?x533 ?x472)))
 (<= ?x534 1))))))
(assert
 (let ((?x472 (ite ocupaf_2_1_1_1 1 0)))
 (let ((?x466 (ite ocupaf_2_1_1_0 1 0)))
 (let ((?x533 (+ (+ (ite ocupav_2_1_1_0 1 0) (ite ocupav_2_1_1_1 1 0)) ?x466)))
 (let ((?x534 (+ ?x533 ?x472)))
 (let ((?x471 (ite ocupaf_2_1_0_1 1 0)))
 (let ((?x465 (ite ocupaf_2_1_0_0 1 0)))
 (let ((?x459 (ite ocupav_2_1_0_1 1 0)))
 (let ((?x453 (ite ocupav_2_1_0_0 1 0)))
 (let ((?x525 (+ ?x453 ?x459)))
 (let ((?x527 (+ (+ ?x525 ?x465) ?x471)))
 (=> (= ?x527 0) (= ?x534 0)))))))))))))
(assert
 (let ((?x472 (ite ocupaf_2_1_1_1 1 0)))
 (let ((?x546 (ite ocupaf_2_1_1_0 2 0)))
 (let ((?x460 (ite ocupav_2_1_1_1 1 0)))
 (let ((?x454 (ite ocupav_2_1_1_0 1 0)))
 (let ((?x471 (ite ocupaf_2_1_0_1 1 0)))
 (let ((?x524 (ite ocupaf_2_1_0_0 2 0)))
 (let ((?x459 (ite ocupav_2_1_0_1 1 0)))
 (let ((?x453 (ite ocupav_2_1_0_0 1 0)))
 (let ((?x525 (+ ?x453 ?x459)))
 (<= (+ (+ (+ (+ (+ (+ ?x525 ?x524) ?x471) ?x454) ?x460) ?x546) ?x472) 2)))))))))))
(assert
 (let ((?x472 (ite ocupaf_2_1_1_1 1 0)))
 (let ((?x466 (ite ocupaf_2_1_1_0 1 0)))
 (let ((?x533 (+ (+ (ite ocupav_2_1_1_0 1 0) (ite ocupav_2_1_1_1 1 0)) ?x466)))
 (let ((?x534 (+ ?x533 ?x472)))
 (let ((?x471 (ite ocupaf_2_1_0_1 1 0)))
 (let ((?x465 (ite ocupaf_2_1_0_0 1 0)))
 (let ((?x459 (ite ocupav_2_1_0_1 1 0)))
 (let ((?x453 (ite ocupav_2_1_0_0 1 0)))
 (let ((?x525 (+ ?x453 ?x459)))
 (let ((?x527 (+ (+ ?x525 ?x465) ?x471)))
 (> (+ ?x527 ?x534) 1))))))))))))
(assert
 (let ((?x472 (ite ocupaf_2_1_1_1 1 0)))
 (let ((?x471 (ite ocupaf_2_1_0_1 1 0)))
 (let ((?x473 (+ ?x471 ?x472)))
 (let ((?x419 (ite ocupaf_2_0_1_1 1 0)))
 (let ((?x409 (ite ocupaf_2_0_0_1 1 0)))
 (let ((?x470 (+ ?x409 ?x419)))
 (let ((?x475 (ite (and (distinct ?x470 ?x473) true) 1 0)))
 (let ((?x466 (ite ocupaf_2_1_1_0 1 0)))
 (let ((?x465 (ite ocupaf_2_1_0_0 1 0)))
 (let ((?x467 (+ ?x465 ?x466)))
 (let ((?x418 (ite ocupaf_2_0_1_0 1 0)))
 (let ((?x408 (ite ocupaf_2_0_0_0 1 0)))
 (let ((?x464 (+ ?x408 ?x418)))
 (let ((?x469 (ite (and (distinct ?x464 ?x467) true) 1 0)))
 (let ((?x460 (ite ocupav_2_1_1_1 1 0)))
 (let ((?x459 (ite ocupav_2_1_0_1 1 0)))
 (let ((?x461 (+ ?x459 ?x460)))
 (let ((?x417 (ite ocupav_2_0_1_1 1 0)))
 (let ((?x406 (ite ocupav_2_0_0_1 1 0)))
 (let ((?x458 (+ ?x406 ?x417)))
 (let ((?x463 (ite (and (distinct ?x458 ?x461) true) 1 0)))
 (let ((?x454 (ite ocupav_2_1_1_0 1 0)))
 (let ((?x453 (ite ocupav_2_1_0_0 1 0)))
 (let ((?x455 (+ ?x453 ?x454)))
 (let ((?x416 (ite ocupav_2_0_1_0 1 0)))
 (let ((?x403 (ite ocupav_2_0_0_0 1 0)))
 (let ((?x452 (+ ?x403 ?x416)))
 (let ((?x457 (ite (and (distinct ?x452 ?x455) true) 1 0)))
 (let (($x476 (and x_2_0 x_2_1)))
 (=> $x476 (> (+ (+ (+ ?x457 ?x463) ?x469) ?x475) 0))))))))))))))))))))))))))))))))
(assert
 (let ((?x157 (ite ocupaf_0_0_1_1 1 0)))
 (let ((?x164 (ite ocupaf_0_0_1_0 2 0)))
 (let ((?x167 (+ (+ (ite ocupaf_0_0_0_0 2 0) (ite ocupaf_0_0_0_1 1 0)) ?x164)))
 (let ((?x168 (+ ?x167 ?x157)))
 (= var_0_0_0 ?x168))))))
(assert
 (let ((?x185 (ite ocupaf_0_1_1_1 1 0)))
 (let ((?x224 (ite ocupaf_0_1_1_0 2 0)))
 (let ((?x227 (+ (+ (ite ocupaf_0_1_0_0 2 0) (ite ocupaf_0_1_0_1 1 0)) ?x224)))
 (let ((?x228 (+ ?x227 ?x185)))
 (= var_0_1_0 ?x228))))))
(assert
 (let ((?x256 (ite ocupaf_1_0_1_1 1 0)))
 (let ((?x272 (ite ocupaf_1_0_1_0 2 0)))
 (let ((?x580 (ite ocupav_1_0_1_1 var_0_1_0 0)))
 (let ((?x579 (ite ocupav_1_0_1_0 var_0_0_0 0)))
 (let ((?x246 (ite ocupaf_1_0_0_1 1 0)))
 (let ((?x244 (ite ocupaf_1_0_0_0 2 0)))
 (let ((?x574 (ite ocupav_1_0_0_1 var_0_1_0 0)))
 (let ((?x573 (ite ocupav_1_0_0_0 var_0_0_0 0)))
 (let ((?x587 (+ (+ (+ (+ (+ (+ (+ ?x573 ?x574) ?x244) ?x246) ?x579) ?x580) ?x272) ?x256)))
 (= var_1_0_0 ?x587)))))))))))
(assert
 (let ((?x309 (ite ocupaf_1_1_1_1 1 0)))
 (let ((?x383 (ite ocupaf_1_1_1_0 2 0)))
 (let ((?x593 (ite ocupav_1_1_1_1 var_0_1_0 0)))
 (let ((?x592 (ite ocupav_1_1_1_0 var_0_0_0 0)))
 (let ((?x308 (ite ocupaf_1_1_0_1 1 0)))
 (let ((?x361 (ite ocupaf_1_1_0_0 2 0)))
 (let ((?x591 (ite ocupav_1_1_0_1 var_0_1_0 0)))
 (let ((?x589 (ite ocupav_1_1_0_0 var_0_0_0 0)))
 (let ((?x602 (+ (+ (+ (+ (+ (+ (+ ?x589 ?x591) ?x361) ?x308) ?x592) ?x593) ?x383) ?x309)))
 (= var_1_1_0 ?x602)))))))))))
(assert
 (let ((?x419 (ite ocupaf_2_0_1_1 1 0)))
 (let ((?x435 (ite ocupaf_2_0_1_0 2 0)))
 (let ((?x608 (ite ocupav_2_0_1_1 var_1_1_0 0)))
 (let ((?x607 (ite ocupav_2_0_1_0 var_1_0_0 0)))
 (let ((?x409 (ite ocupaf_2_0_0_1 1 0)))
 (let ((?x407 (ite ocupaf_2_0_0_0 2 0)))
 (let ((?x606 (ite ocupav_2_0_0_1 var_1_1_0 0)))
 (let ((?x604 (ite ocupav_2_0_0_0 var_1_0_0 0)))
 (let ((?x617 (+ (+ (+ (+ (+ (+ (+ ?x604 ?x606) ?x407) ?x409) ?x607) ?x608) ?x435) ?x419)))
 (= var_2_0_0 ?x617)))))))))))
(assert
 (let ((?x472 (ite ocupaf_2_1_1_1 1 0)))
 (let ((?x546 (ite ocupaf_2_1_1_0 2 0)))
 (let ((?x623 (ite ocupav_2_1_1_1 var_1_1_0 0)))
 (let ((?x622 (ite ocupav_2_1_1_0 var_1_0_0 0)))
 (let ((?x471 (ite ocupaf_2_1_0_1 1 0)))
 (let ((?x524 (ite ocupaf_2_1_0_0 2 0)))
 (let ((?x621 (ite ocupav_2_1_0_1 var_1_1_0 0)))
 (let ((?x619 (ite ocupav_2_1_0_0 var_1_0_0 0)))
 (let ((?x632 (+ (+ (+ (+ (+ (+ (+ ?x619 ?x621) ?x524) ?x471) ?x622) ?x623) ?x546) ?x472)))
 (= var_2_1_0 ?x632)))))))))))
(assert
 (let (($x649 (not ocupamv_0_1_0)))
 (=> ocupamv_0_0_1 $x649)))
(assert
 (let (($x649 (not ocupamv_0_1_0)))
 (=> ocupamf_0_0 $x649)))
(assert
 (let (($x656 (not ocupamv_0_1_1)))
 (=> ocupamf_0_0 $x656)))
(assert
 (let (($x649 (not ocupamv_0_1_0)))
 (=> ocupamf_0_1 $x649)))
(assert
 (let (($x656 (not ocupamv_0_1_1)))
 (=> ocupamf_0_1 $x656)))
(assert
 (let (($x654 (not ocupamf_0_0)))
 (=> ocupamf_0_1 $x654)))
(assert
 (let (($x666 (not ocupamv_1_1_0)))
 (=> ocupamv_1_0_1 $x666)))
(assert
 (let (($x666 (not ocupamv_1_1_0)))
 (=> ocupamf_1_0 $x666)))
(assert
 (let (($x673 (not ocupamv_1_1_1)))
 (=> ocupamf_1_0 $x673)))
(assert
 (let (($x666 (not ocupamv_1_1_0)))
 (=> ocupamf_1_1 $x666)))
(assert
 (let (($x673 (not ocupamv_1_1_1)))
 (=> ocupamf_1_1 $x673)))
(assert
 (let (($x671 (not ocupamf_1_0)))
 (=> ocupamf_1_1 $x671)))
(assert
 (=> ocupamv_0_0_0 x_2_0))
(assert
 (=> ocupamv_0_0_1 x_2_1))
(assert
 (let ((?x692 (ite ocupamf_0_1 1 0)))
 (let ((?x691 (ite ocupamf_0_0 1 0)))
 (let ((?x689 (ite ocupamv_0_0_1 1 0)))
 (let ((?x686 (ite ocupamv_0_0_0 1 0)))
 (let ((?x693 (+ ?x686 ?x689)))
 (let ((?x695 (+ (+ ?x693 ?x691) ?x692)))
 (<= ?x695 1))))))))
(assert
 (let ((?x692 (ite ocupamf_0_1 1 0)))
 (let ((?x691 (ite ocupamf_0_0 1 0)))
 (let ((?x703 (+ (+ (ite ocupamv_0_1_0 1 0) (ite ocupamv_0_1_1 1 0)) ?x691)))
 (let ((?x704 (+ ?x703 ?x692)))
 (let ((?x689 (ite ocupamv_0_0_1 1 0)))
 (let ((?x686 (ite ocupamv_0_0_0 1 0)))
 (let ((?x693 (+ ?x686 ?x689)))
 (let ((?x695 (+ (+ ?x693 ?x691) ?x692)))
 (=> (= ?x695 0) (= ?x704 0)))))))))))
(assert
 (=> ocupamv_0_1_0 x_2_0))
(assert
 (=> ocupamv_0_1_1 x_2_1))
(assert
 (let ((?x692 (ite ocupamf_0_1 1 0)))
 (let ((?x691 (ite ocupamf_0_0 1 0)))
 (let ((?x703 (+ (+ (ite ocupamv_0_1_0 1 0) (ite ocupamv_0_1_1 1 0)) ?x691)))
 (let ((?x704 (+ ?x703 ?x692)))
 (<= ?x704 1))))))
(assert
 (let ((?x692 (ite ocupamf_0_1 1 0)))
 (let ((?x691 (ite ocupamf_0_0 1 0)))
 (let ((?x703 (+ (+ (ite ocupamv_0_1_0 1 0) (ite ocupamv_0_1_1 1 0)) ?x691)))
 (let ((?x704 (+ ?x703 ?x692)))
 (let ((?x689 (ite ocupamv_0_0_1 1 0)))
 (let ((?x686 (ite ocupamv_0_0_0 1 0)))
 (let ((?x693 (+ ?x686 ?x689)))
 (let ((?x695 (+ (+ ?x693 ?x691) ?x692)))
 (=> (= ?x695 0) (= ?x704 0)))))))))))
(assert
 (let ((?x692 (ite ocupamf_0_1 1 0)))
 (let ((?x690 (ite ocupamf_0_0 2 0)))
 (let ((?x700 (ite ocupamv_0_1_1 1 0)))
 (let ((?x699 (ite ocupamv_0_1_0 1 0)))
 (let ((?x689 (ite ocupamv_0_0_1 1 0)))
 (let ((?x686 (ite ocupamv_0_0_0 1 0)))
 (let ((?x693 (+ ?x686 ?x689)))
 (<= (+ (+ (+ (+ (+ (+ ?x693 ?x690) ?x692) ?x699) ?x700) ?x690) ?x692) 2)))))))))
(assert
 (=> ocupamv_1_0_0 x_2_0))
(assert
 (=> ocupamv_1_0_1 x_2_1))
(assert
 (let ((?x738 (ite ocupamf_1_1 1 0)))
 (let ((?x737 (ite ocupamf_1_0 1 0)))
 (let ((?x735 (ite ocupamv_1_0_1 1 0)))
 (let ((?x732 (ite ocupamv_1_0_0 1 0)))
 (let ((?x739 (+ ?x732 ?x735)))
 (let ((?x741 (+ (+ ?x739 ?x737) ?x738)))
 (<= ?x741 1))))))))
(assert
 (let ((?x738 (ite ocupamf_1_1 1 0)))
 (let ((?x737 (ite ocupamf_1_0 1 0)))
 (let ((?x749 (+ (+ (ite ocupamv_1_1_0 1 0) (ite ocupamv_1_1_1 1 0)) ?x737)))
 (let ((?x750 (+ ?x749 ?x738)))
 (let ((?x735 (ite ocupamv_1_0_1 1 0)))
 (let ((?x732 (ite ocupamv_1_0_0 1 0)))
 (let ((?x739 (+ ?x732 ?x735)))
 (let ((?x741 (+ (+ ?x739 ?x737) ?x738)))
 (=> (= ?x741 0) (= ?x750 0)))))))))))
(assert
 (=> ocupamv_1_1_0 x_2_0))
(assert
 (=> ocupamv_1_1_1 x_2_1))
(assert
 (let ((?x738 (ite ocupamf_1_1 1 0)))
 (let ((?x737 (ite ocupamf_1_0 1 0)))
 (let ((?x749 (+ (+ (ite ocupamv_1_1_0 1 0) (ite ocupamv_1_1_1 1 0)) ?x737)))
 (let ((?x750 (+ ?x749 ?x738)))
 (<= ?x750 1))))))
(assert
 (let ((?x738 (ite ocupamf_1_1 1 0)))
 (let ((?x737 (ite ocupamf_1_0 1 0)))
 (let ((?x749 (+ (+ (ite ocupamv_1_1_0 1 0) (ite ocupamv_1_1_1 1 0)) ?x737)))
 (let ((?x750 (+ ?x749 ?x738)))
 (let ((?x735 (ite ocupamv_1_0_1 1 0)))
 (let ((?x732 (ite ocupamv_1_0_0 1 0)))
 (let ((?x739 (+ ?x732 ?x735)))
 (let ((?x741 (+ (+ ?x739 ?x737) ?x738)))
 (=> (= ?x741 0) (= ?x750 0)))))))))))
(assert
 (let ((?x738 (ite ocupamf_1_1 1 0)))
 (let ((?x736 (ite ocupamf_1_0 2 0)))
 (let ((?x746 (ite ocupamv_1_1_1 1 0)))
 (let ((?x745 (ite ocupamv_1_1_0 1 0)))
 (let ((?x735 (ite ocupamv_1_0_1 1 0)))
 (let ((?x732 (ite ocupamv_1_0_0 1 0)))
 (let ((?x739 (+ ?x732 ?x735)))
 (<= (+ (+ (+ (+ (+ (+ ?x739 ?x736) ?x738) ?x745) ?x746) ?x736) ?x738) 2)))))))))
(assert
 (let ((?x692 (ite ocupamf_0_1 1 0)))
 (let ((?x690 (ite ocupamf_0_0 2 0)))
 (let ((?x778 (ite ocupamv_0_1_1 var_2_1_0 0)))
 (let ((?x777 (ite ocupamv_0_1_0 var_2_0_0 0)))
 (let ((?x776 (ite ocupamv_0_0_1 var_2_1_0 0)))
 (let ((?x775 (ite ocupamv_0_0_0 var_2_0_0 0)))
 (let ((?x785 (+ (+ (+ (+ (+ (+ (+ ?x775 ?x776) ?x690) ?x692) ?x777) ?x778) ?x690) ?x692)))
 (= ?x785 12)))))))))
(assert
 (let ((?x738 (ite ocupamf_1_1 1 0)))
 (let ((?x736 (ite ocupamf_1_0 2 0)))
 (let ((?x793 (ite ocupamv_1_1_1 var_2_1_0 0)))
 (let ((?x792 (ite ocupamv_1_1_0 var_2_0_0 0)))
 (let ((?x791 (ite ocupamv_1_0_1 var_2_1_0 0)))
 (let ((?x790 (ite ocupamv_1_0_0 var_2_0_0 0)))
 (let ((?x800 (+ (+ (+ (+ (+ (+ (+ ?x790 ?x791) ?x736) ?x738) ?x792) ?x793) ?x736) ?x738)))
 (= ?x800 12)))))))))
(assert
 (let (($x817 (or ocupav_1_0_0_0 ocupav_1_0_1_0)))
 (let ((?x254 (ite ocupav_1_0_1_1 1 0)))
 (let ((?x253 (ite ocupav_1_0_1_0 1 0)))
 (let ((?x243 (ite ocupav_1_0_0_1 1 0)))
 (let ((?x240 (ite ocupav_1_0_0_0 1 0)))
 (let ((?x247 (+ ?x240 ?x243)))
 (let ((?x815 (+ (+ (+ (+ (+ (+ ?x247 ?x240) ?x243) ?x253) ?x254) ?x253) ?x254)))
 (let (($x816 (> ?x815 1)))
 (=> (and $x816 $x817 x_0_0) cuenta_0_0))))))))))
(assert
 (let (($x842 (or ocupav_1_1_0_0 ocupav_1_1_1_0)))
 (let ((?x297 (ite ocupav_1_1_1_1 1 0)))
 (let ((?x291 (ite ocupav_1_1_1_0 1 0)))
 (let ((?x296 (ite ocupav_1_1_0_1 1 0)))
 (let ((?x290 (ite ocupav_1_1_0_0 1 0)))
 (let ((?x254 (ite ocupav_1_0_1_1 1 0)))
 (let ((?x253 (ite ocupav_1_0_1_0 1 0)))
 (let ((?x243 (ite ocupav_1_0_0_1 1 0)))
 (let ((?x240 (ite ocupav_1_0_0_0 1 0)))
 (let ((?x247 (+ ?x240 ?x243)))
 (let ((?x815 (+ (+ (+ (+ (+ (+ ?x247 ?x240) ?x243) ?x253) ?x254) ?x253) ?x254)))
 (let ((?x839 (+ (+ (+ (+ (+ (+ (+ ?x815 ?x290) ?x296) ?x290) ?x296) ?x291) ?x297) ?x291)))
 (let (($x841 (> (+ ?x839 ?x297) 1)))
 (=> (and $x841 $x842 x_0_0) cuenta_0_0)))))))))))))))
(assert
 (let (($x858 (or ocupav_1_0_0_1 ocupav_1_0_1_1)))
 (let ((?x254 (ite ocupav_1_0_1_1 1 0)))
 (let ((?x253 (ite ocupav_1_0_1_0 1 0)))
 (let ((?x243 (ite ocupav_1_0_0_1 1 0)))
 (let ((?x240 (ite ocupav_1_0_0_0 1 0)))
 (let ((?x247 (+ ?x240 ?x243)))
 (let ((?x815 (+ (+ (+ (+ (+ (+ ?x247 ?x240) ?x243) ?x253) ?x254) ?x253) ?x254)))
 (let (($x816 (> ?x815 1)))
 (=> (and $x816 $x858 x_0_1) cuenta_0_1))))))))))
(assert
 (let (($x864 (or ocupav_1_1_0_1 ocupav_1_1_1_1)))
 (let ((?x297 (ite ocupav_1_1_1_1 1 0)))
 (let ((?x291 (ite ocupav_1_1_1_0 1 0)))
 (let ((?x296 (ite ocupav_1_1_0_1 1 0)))
 (let ((?x290 (ite ocupav_1_1_0_0 1 0)))
 (let ((?x254 (ite ocupav_1_0_1_1 1 0)))
 (let ((?x253 (ite ocupav_1_0_1_0 1 0)))
 (let ((?x243 (ite ocupav_1_0_0_1 1 0)))
 (let ((?x240 (ite ocupav_1_0_0_0 1 0)))
 (let ((?x247 (+ ?x240 ?x243)))
 (let ((?x815 (+ (+ (+ (+ (+ (+ ?x247 ?x240) ?x243) ?x253) ?x254) ?x253) ?x254)))
 (let ((?x839 (+ (+ (+ (+ (+ (+ (+ ?x815 ?x290) ?x296) ?x290) ?x296) ?x291) ?x297) ?x291)))
 (let (($x841 (> (+ ?x839 ?x297) 1)))
 (=> (and $x841 $x864 x_0_1) cuenta_0_1)))))))))))))))
(assert
 (let (($x877 (or ocupav_2_0_0_0 ocupav_2_0_1_0)))
 (let ((?x417 (ite ocupav_2_0_1_1 1 0)))
 (let ((?x416 (ite ocupav_2_0_1_0 1 0)))
 (let ((?x406 (ite ocupav_2_0_0_1 1 0)))
 (let ((?x403 (ite ocupav_2_0_0_0 1 0)))
 (let ((?x410 (+ ?x403 ?x406)))
 (let ((?x875 (+ (+ (+ (+ (+ (+ ?x410 ?x403) ?x406) ?x416) ?x417) ?x416) ?x417)))
 (let (($x876 (> ?x875 1)))
 (=> (and $x876 $x877 x_1_0) cuenta_1_0))))))))))
(assert
 (let (($x902 (or ocupav_2_1_0_0 ocupav_2_1_1_0)))
 (let ((?x460 (ite ocupav_2_1_1_1 1 0)))
 (let ((?x454 (ite ocupav_2_1_1_0 1 0)))
 (let ((?x459 (ite ocupav_2_1_0_1 1 0)))
 (let ((?x453 (ite ocupav_2_1_0_0 1 0)))
 (let ((?x417 (ite ocupav_2_0_1_1 1 0)))
 (let ((?x416 (ite ocupav_2_0_1_0 1 0)))
 (let ((?x406 (ite ocupav_2_0_0_1 1 0)))
 (let ((?x403 (ite ocupav_2_0_0_0 1 0)))
 (let ((?x410 (+ ?x403 ?x406)))
 (let ((?x875 (+ (+ (+ (+ (+ (+ ?x410 ?x403) ?x406) ?x416) ?x417) ?x416) ?x417)))
 (let ((?x899 (+ (+ (+ (+ (+ (+ (+ ?x875 ?x453) ?x459) ?x453) ?x459) ?x454) ?x460) ?x454)))
 (let (($x901 (> (+ ?x899 ?x460) 1)))
 (=> (and $x901 $x902 x_1_0) cuenta_1_0)))))))))))))))
(assert
 (let (($x918 (or ocupav_2_0_0_1 ocupav_2_0_1_1)))
 (let ((?x417 (ite ocupav_2_0_1_1 1 0)))
 (let ((?x416 (ite ocupav_2_0_1_0 1 0)))
 (let ((?x406 (ite ocupav_2_0_0_1 1 0)))
 (let ((?x403 (ite ocupav_2_0_0_0 1 0)))
 (let ((?x410 (+ ?x403 ?x406)))
 (let ((?x875 (+ (+ (+ (+ (+ (+ ?x410 ?x403) ?x406) ?x416) ?x417) ?x416) ?x417)))
 (let (($x876 (> ?x875 1)))
 (=> (and $x876 $x918 x_1_1) cuenta_1_1))))))))))
(assert
 (let (($x924 (or ocupav_2_1_0_1 ocupav_2_1_1_1)))
 (let ((?x460 (ite ocupav_2_1_1_1 1 0)))
 (let ((?x454 (ite ocupav_2_1_1_0 1 0)))
 (let ((?x459 (ite ocupav_2_1_0_1 1 0)))
 (let ((?x453 (ite ocupav_2_1_0_0 1 0)))
 (let ((?x417 (ite ocupav_2_0_1_1 1 0)))
 (let ((?x416 (ite ocupav_2_0_1_0 1 0)))
 (let ((?x406 (ite ocupav_2_0_0_1 1 0)))
 (let ((?x403 (ite ocupav_2_0_0_0 1 0)))
 (let ((?x410 (+ ?x403 ?x406)))
 (let ((?x875 (+ (+ (+ (+ (+ (+ ?x410 ?x403) ?x406) ?x416) ?x417) ?x416) ?x417)))
 (let ((?x899 (+ (+ (+ (+ (+ (+ (+ ?x875 ?x453) ?x459) ?x453) ?x459) ?x454) ?x460) ?x454)))
 (let (($x901 (> (+ ?x899 ?x460) 1)))
 (=> (and $x901 $x924 x_1_1) cuenta_1_1)))))))))))))))
(assert
 (let (($x930 (and x_2_0 ocupamv_0_0_0)))
 (=> $x930 cuenta_2_0)))
(assert
 (let (($x934 (and x_2_0 ocupamv_0_0_1)))
 (=> $x934 cuenta_2_0)))
(assert
 (let (($x938 (and x_2_1 ocupamv_0_1_0)))
 (=> $x938 cuenta_2_1)))
(assert
 (let (($x942 (and x_2_1 ocupamv_0_1_1)))
 (=> $x942 cuenta_2_1)))
(assert
 (let (($x946 (and x_2_0 ocupamv_1_0_0)))
 (=> $x946 cuenta_2_0)))
(assert
 (let (($x950 (and x_2_0 ocupamv_1_0_1)))
 (=> $x950 cuenta_2_0)))
(assert
 (let (($x954 (and x_2_1 ocupamv_1_1_0)))
 (=> $x954 cuenta_2_1)))
(assert
 (let (($x958 (and x_2_1 ocupamv_1_1_1)))
 (=> $x958 cuenta_2_1)))
(assert
 (let ((?x967 (ite cuenta_2_1 1 0)))
(let ((?x966 (ite cuenta_2_0 1 0)))
(let ((?x965 (ite cuenta_1_1 1 0)))
(let ((?x964 (ite cuenta_1_0 1 0)))
(let ((?x969 (+ (+ (ite cuenta_0_0 1 0) (ite cuenta_0_1 1 0)) ?x964)))
(<= (+ (+ (+ ?x969 ?x965) ?x966) ?x967) 3)))))))
(check-sat)
